This is Ipopt version 3.14.16, running with linear solver MUMPS 5.7.3.

Number of nonzeros in equality constraint Jacobian...:        0
Number of nonzeros in inequality constraint Jacobian.:        3
Number of nonzeros in Lagrangian Hessian.............:        0

Total number of variables............................:        3
                     variables with only lower bounds:        0
                variables with lower and upper bounds:        3
                     variables with only upper bounds:        0
Total number of equality constraints.................:        0
Total number of inequality constraints...............:        1
        inequality constraints with only lower bounds:        0
   inequality constraints with lower and upper bounds:        1
        inequality constraints with only upper bounds:        0

iter    objective    inf_pr   inf_du lg(mu)  ||d||  lg(rg) alpha_du alpha_pr  ls
   0 -4.9743138e+01 0.00e+00 1.07e+00   0.0 0.00e+00    -  0.00e+00 0.00e+00   0
   1 -5.0671897e+01 0.00e+00 9.76e-01  -0.0 9.04e-01    -  9.50e-01 1.00e+00f  1
   2 -5.1933459e+01 0.00e+00 1.24e+00  -1.4 1.14e+00    -  9.95e-01 1.00e+00f  1
   3 -5.3643214e+01 0.00e+00 1.35e+00  -1.4 1.22e+00    -  9.98e-01 1.00e+00f  1
   4 -5.5329426e+01 0.00e+00 1.48e+00  -2.7 1.35e+00    -  1.00e+00 1.00e+00f  1
   5 -5.7343873e+01 0.00e+00 2.95e+00  -3.2 1.48e+00    -  1.00e+00 1.00e+00f  1
   6 -5.8042052e+01 0.00e+00 5.54e+01  -2.1 5.08e+02    -  1.00e+00 8.20e-04f  1
   7 -8.2059066e+01 0.00e+00 7.10e+01  -1.0 9.60e+01    -  1.00e+00 8.59e-02f  1
   8 -8.2487472e+01 0.00e+00 6.71e+00  -2.9 3.59e+00    -  1.00e+00 2.30e-02f  1
   9 -8.3489623e+01 0.00e+00 1.57e+00  -0.8 2.46e-01    -  7.83e-01 1.00e+00f  1
iter    objective    inf_pr   inf_du lg(mu)  ||d||  lg(rg) alpha_du alpha_pr  ls
  10 -8.3665405e+01 0.00e+00 1.44e+00  -2.5 2.91e-02    -  1.00e+00 9.72e-01f  1
  11 -8.3672904e+01 0.00e+00 1.46e+00  -3.6 4.85e-02    -  1.00e+00 2.50e-01f  3
  12 -8.3674776e+01 0.00e+00 1.47e+00  -5.1 7.84e-02    -  1.00e+00 6.13e-02f  5
  13 -8.3675622e+01 0.00e+00 2.33e-01  -5.5 2.31e-01    -  1.00e+00 2.32e-03f  6
  14 -8.3675835e+01 0.00e+00 2.01e-02  -4.6 1.95e-02    -  1.00e+00 6.67e-03f  8
  15 -8.3675941e+01 0.00e+00 2.58e-02  -4.6 1.67e-02    -  1.00e+00 3.86e-03f  9
  16 -8.3675994e+01 0.00e+00 7.99e-03  -4.6 1.67e-02    -  1.00e+00 1.92e-03f 10
  17 -8.3676023e+01 0.00e+00 1.17e+00  -4.6 4.23e-03    -  1.00e+00 3.91e-03f  9
  18 -8.3676036e+01 0.00e+00 2.35e+00  -5.1 6.36e-02    -  1.00e+00 1.26e-04f 12
  19 -8.3676043e+01 0.00e+00 3.98e-01  -4.6 1.69e-02    -  1.00e+00 2.37e-04f 13
iter    objective    inf_pr   inf_du lg(mu)  ||d||  lg(rg) alpha_du alpha_pr  ls
  20 -8.3676044e+01 0.00e+00 6.45e-02  -4.6 1.59e-02    -  1.00e+00 6.10e-05f 15
  21 -8.3676044e+01 0.00e+00 6.69e-02  -4.6 1.65e-02    -  1.00e+00 7.57e-06f 18
  22 -8.3676045e+01 0.00e+00 3.12e+00  -2.6 1.58e-02    -  1.00e+00 3.81e-06f 19
  23 -8.3676045e+01 0.00e+00 1.51e+00  -2.6 1.51e-02    -  1.00e+00 1.91e-06f 20
  24 -8.3676044e+01 0.00e+00 6.23e+00  -2.6 2.09e-05    -  1.00e+00 3.91e-03f  9
  25 -8.3676044e+01 0.00e+00 1.42e+00  -2.6 1.07e-04    -  1.00e+00 4.88e-04f 12
  26 -8.3676044e+01 0.00e+00 1.42e+00  -2.6 1.77e-04    -  1.00e+00 3.05e-05f 16
  27 -8.3676044e+01 0.00e+00 1.40e+00  -2.6 2.05e-04    -  1.00e+00 7.63e-06f 18
  28 -8.3676044e+01 0.00e+00 3.57e+00  -2.6 1.24e-04    -  1.00e+00 1.22e-04f 14
  29 -8.3676044e+01 0.00e+00 6.24e+00  -2.6 1.57e-05    -  1.00e+00 3.05e-05f 16
iter    objective    inf_pr   inf_du lg(mu)  ||d||  lg(rg) alpha_du alpha_pr  ls
  30 -8.3676044e+01 0.00e+00 1.40e+00  -2.6 1.01e-04    -  1.00e+00 1.91e-06f 20
  31 -8.3676044e+01 0.00e+00 1.69e+00  -2.6 1.59e-04    -  1.00e+00 4.77e-07f 22
  32 -8.2488607e+01 0.00e+00 5.63e+00  -2.6 7.95e-05    -  1.00e+00 1.00e+00w  1
  33 -8.2488382e+01 0.00e+00 4.89e+00  -2.6 4.30e-05    -  1.00e+00 1.00e+00w  1
  34 -8.2488147e+01 0.00e+00 2.18e+00  -2.6 4.49e-05    -  1.00e+00 1.00e+00w  1
  35 -8.3676044e+01 0.00e+00 4.08e+00  -2.6 1.76e-01    -  1.00e+00 1.49e-08f 26
  36 -8.3676044e+01 0.00e+00 1.33e-01  -2.6 1.33e-01    -  1.00e+00 3.54e-15f 46
  37 -8.3676044e+01 0.00e+00 1.61e-02  -2.6 1.61e-02    -  1.00e+00 4.55e-13f 42
  38 -8.3676044e+01 0.00e+00 1.64e-02  -3.9 1.64e-02    -  1.00e+00 1.42e-14f 47
  39 -8.3676044e+01 0.00e+00 1.65e-02  -3.9 1.65e-02    -  1.00e+00 2.84e-14f 46
iter    objective    inf_pr   inf_du lg(mu)  ||d||  lg(rg) alpha_du alpha_pr  ls
  40 -8.3676044e+01 0.00e+00 1.65e-02  -3.9 1.65e-02    -  1.00e+00 2.22e-16f 53
  41 -8.3676044e+01 0.00e+00 1.65e-02  -3.9 1.65e-02    -  1.00e+00 2.22e-16f 53
  42 -8.3676044e+01 0.00e+00 1.65e-02  -3.9 1.65e-02    -  1.00e+00 2.22e-16f 53
  43 -8.3676044e+01 0.00e+00 1.65e-02  -3.9 1.65e-02    -  1.00e+00 2.22e-16f 53
  44 -8.3676044e+01 0.00e+00 1.65e-02  -3.9 1.65e-02    -  1.00e+00 2.22e-16f 53
  45 -8.3676044e+01 0.00e+00 1.65e-02  -3.9 1.65e-02    -  1.00e+00 2.22e-16f 53
  46 -8.3676044e+01 0.00e+00 1.65e-02  -3.9 1.65e-02    -  1.00e+00 2.22e-16f 53
  47 -8.3676044e+01 0.00e+00 1.65e-02  -3.9 1.65e-02    -  1.00e+00 2.22e-16f 53
  48 -8.2491735e+01 0.00e+00 1.23e+00  -3.9 1.65e-02    -  1.00e+00 1.00e+00w  1
  49 -8.2491722e+01 0.00e+00 7.25e-01  -3.9 6.93e-05    -  1.00e+00 1.00e+00w  1
iter    objective    inf_pr   inf_du lg(mu)  ||d||  lg(rg) alpha_du alpha_pr  ls
  50 -8.2491729e+01 0.00e+00 5.55e-01  -3.9 1.44e-05    -  1.00e+00 1.00e+00w  1
  51 -8.3676044e+01 0.00e+00 1.65e-02  -3.9 3.03e-05    -  1.00e+00 2.22e-16f 52
  52 -8.3676044e+01 0.00e+00 4.32e-01  -3.9 1.55e-02    -  1.00e+00 4.44e-16f 52
  53 -8.3676044e+01 0.00e+00 4.57e-01  -3.9 1.64e-02    -  1.00e+00 2.22e-16f 53
  54 -8.3676044e+01 0.00e+00 4.59e-01  -3.9 1.65e-02    -  1.00e+00 2.22e-16f 53
  55 -8.3676044e+01 0.00e+00 1.76e-02  -3.9 1.76e-02    -  1.00e+00 2.09e-16f 53
  56 -8.3676044e+01 0.00e+00 1.65e-02  -3.9 1.65e-02    -  1.00e+00 2.22e-16f 53
  57 -8.3676044e+01 0.00e+00 1.65e-02  -3.9 1.65e-02    -  1.00e+00 2.22e-16f 53
  58 -8.3676044e+01 0.00e+00 1.65e-02  -3.9 1.65e-02    -  1.00e+00 2.22e-16f 53
  59 -8.3676044e+01 0.00e+00 1.65e-02  -3.9 1.65e-02    -  1.00e+00 2.22e-16f 53
iter    objective    inf_pr   inf_du lg(mu)  ||d||  lg(rg) alpha_du alpha_pr  ls
  60 -8.3676044e+01 0.00e+00 1.65e-02  -3.9 1.65e-02    -  1.00e+00 2.22e-16f 53
  61 -8.2491735e+01 0.00e+00 1.10e+00  -3.9 1.65e-02    -  1.00e+00 1.00e+00w  1
  62 -8.2491708e+01 0.00e+00 2.31e+00  -3.9 6.22e-05    -  1.00e+00 1.00e+00w  1
  63 -8.2491593e+01 0.00e+00 2.60e+00  -3.9 9.13e-04    -  1.96e-01 1.00e+00w  1
  64 -8.2489023e+01 0.00e+00 1.10e+00  -3.9 3.98e-02    -  1.00e+00 1.00e+00S 21
  65 -8.2491708e+01 0.00e+00 6.85e-01  -3.9 2.97e-04    -  1.00e+00 1.00e+00f  1
  66 -8.2491725e+01 0.00e+00 3.45e+00  -3.9 1.02e-04    -  1.00e+00 1.00e+00f  1
  67 -8.2491725e+01 0.00e+00 2.56e+00  -3.9 1.07e-04    -  1.00e+00 2.98e-08f 26
  68 -8.2491725e+01 0.00e+00 1.52e+00  -3.9 6.77e-06    -  1.00e+00 1.19e-07f 24
  69 -8.2491725e+01 0.00e+00 5.65e-01  -3.9 2.26e-09    -  1.00e+00 9.77e-04f 11
iter    objective    inf_pr   inf_du lg(mu)  ||d||  lg(rg) alpha_du alpha_pr  ls
  70 -8.2491725e+01 0.00e+00 2.97e+00  -3.9 5.08e-09    -  1.00e+00 4.88e-04f 12
  71 -8.2491725e+01 0.00e+00 2.97e+00  -3.9 1.26e-07    -  1.00e+00 4.77e-07f 22
  72 -8.2491725e+01 0.00e+00 2.97e+00  -3.9 1.26e-07    -  1.00e+00 4.77e-07f 22
  73 -8.2491725e+01 0.00e+00 2.97e+00  -3.9 1.26e-07    -  1.00e+00 4.77e-07f 22
  74 -8.2491725e+01 0.00e+00 6.10e-04  -3.9 6.10e-04    -  1.00e+00 7.73e-15f 46
  75 -8.2491867e+01 0.00e+00 7.13e+00  -5.8 1.66e-04    -  1.00e+00 1.00e+00f  1
  76 -8.2491867e+01 0.00e+00 1.62e+00  -5.8 7.67e-07    -  5.32e-01 1.00e+00f  1
  77 -8.2491867e+01 0.00e+00 2.84e-01  -5.8 4.62e-08    -  1.00e+00 9.31e-10f 31
  78 -8.2491867e+01 0.00e+00 2.60e+00  -5.8 4.47e-08    -  1.00e+00 5.00e-01f  2
  79 -8.2491867e+01 0.00e+00 2.21e+00  -5.8 3.41e-07    -  1.00e+00 1.16e-10f 34
iter    objective    inf_pr   inf_du lg(mu)  ||d||  lg(rg) alpha_du alpha_pr  ls
  80 -8.2491867e+01 0.00e+00 1.72e+00  -5.8 3.44e-06    -  1.00e+00 5.14e-06f 18
  81 -8.2491867e+01 0.00e+00 1.31e+00  -5.8 1.69e-08    -  1.00e+00 1.49e-08f 27
  82 -8.2491867e+01 0.00e+00 1.34e+00  -5.8 1.72e-08    -  1.00e+00 9.31e-10f 31
  83 -8.2491867e+01 0.00e+00 3.25e+00  -5.8 1.72e-08    -  1.00e+00 6.25e-02f  5
  84 -8.2491867e+01 0.00e+00 2.75e-06  -5.8 3.44e-06    -  1.00e+00 6.09e-12f 37
  85 -8.2491869e+01 0.00e+00 6.89e+00  -8.7 1.15e-06    -  1.00e+00 1.00e+00f  1
  86 -8.2491869e+01 0.00e+00 2.69e+00  -8.7 6.31e-10    -  6.70e-01 1.00e+00f  1
  87 -8.2491869e+01 0.00e+00 1.11e+00  -8.7 7.21e-07    -  1.00e+00 1.25e-01f  4
  88 -8.2491869e+01 0.00e+00 7.68e-01  -8.7 3.19e-08    -  1.00e+00 1.00e+00f  1
  89 -8.2491869e+01 0.00e+00 4.46e+00  -8.7 3.13e-08    -  1.00e+00 2.98e-08f 26
iter    objective    inf_pr   inf_du lg(mu)  ||d||  lg(rg) alpha_du alpha_pr  ls
  90 -8.2491869e+01 0.00e+00 4.67e+00  -8.7 1.20e-07    -  1.00e+00 1.47e-08f 26
  91 -8.2491869e+01 0.00e+00 3.87e+00  -8.7 1.15e-07    -  1.00e+00 4.79e-10f 31
  92 -8.2491869e+01 0.00e+00 2.00e-07  -8.7 2.00e-07    -  1.00e+00 3.45e-11f 34
  93 -8.2491869e+01 0.00e+00 5.89e-08  -8.7 5.89e-08    -  1.00e+00 1.16e-10f 34
  94 -8.2491869e+01 0.00e+00 5.89e-08  -8.7 5.89e-08    -  1.00e+00 1.16e-10f 34
  95 -8.2491869e+01 0.00e+00 5.89e-08  -8.7 5.89e-08    -  1.00e+00 1.16e-10f 34
  96 -8.2491869e+01 0.00e+00 5.89e-08  -8.7 5.89e-08    -  1.00e+00 1.16e-10f 34
  97 -8.2491869e+01 0.00e+00 5.89e-08  -8.7 5.89e-08    -  1.00e+00 1.16e-10f 34
  98 -8.2491869e+01 0.00e+00 5.89e-08  -8.7 5.89e-08    -  1.00e+00 1.16e-10f 34
  99 -8.2491869e+01 0.00e+00 4.63e+00  -8.7 5.89e-08    -  1.00e+00 1.00e+00w  1
iter    objective    inf_pr   inf_du lg(mu)  ||d||  lg(rg) alpha_du alpha_pr  ls
 100 -8.2491869e+01 0.00e+00 1.78e-01  -8.7 2.99e-10    -  1.00e+00 1.00e+00w  1
 101 -8.2491869e+01 0.00e+00 4.66e+00  -8.7 1.59e-09    -  1.00e+00 1.00e+00w  1
 102 -8.2491869e+01 0.00e+00 4.63e+00  -8.7 1.03e-08    -  1.00e+00 1.00e+00S 21
 103 -8.2491869e+01 0.00e+00 9.16e-01  -8.7 4.30e-09    -  1.00e+00 1.00e+00f  1
 104 -8.2491869e+01 0.00e+00 6.11e+00  -8.7 4.30e-09    -  9.32e-01 3.12e-02f  6
 105 -8.2491869e+01 0.00e+00 3.08e+00  -8.7 7.41e-11    -  1.00e+00 9.77e-04f 11
 106 -8.2491869e+01 0.00e+00 2.95e+00  -8.7 6.94e-11    -  1.00e+00 9.54e-07f 21
 107 -8.2491869e+01 0.00e+00 2.95e+00  -8.7 6.20e-11    -  1.00e+00 9.54e-07f 21
 108 -8.2491869e+01 0.00e+00 2.15e-09  -8.7 4.30e-09    -  1.00e+00 6.79e-09f 28

Number of Iterations....: 108

                                   (scaled)                 (unscaled)
Objective...............:  -8.2491869041735328e+01   -8.2491869041735328e+01
Dual infeasibility......:   2.1496887646537141e-09    2.1496887646537141e-09
Constraint violation....:   0.0000000000000000e+00    0.0000000000000000e+00
Variable bound violation:   4.9627448817091135e-08    4.9627448817091135e-08
Complementarity.........:   4.1997589901590650e-09    4.1997589901590650e-09
Overall NLP error.......:   4.1997589901590650e-09    4.1997589901590650e-09


Number of objective function evaluations             = 2588
Number of objective gradient evaluations             = 109
Number of equality constraint evaluations            = 0
Number of inequality constraint evaluations          = 2588
Number of equality constraint Jacobian evaluations   = 0
Number of inequality constraint Jacobian evaluations = 109
Number of Lagrangian Hessian evaluations             = 0
Total seconds in IPOPT                               = 27.442

EXIT: Optimal Solution Found.
